*SENSE:Minimize
NAME          MODEL
ROWS
 N  OBJ
 L  C0000000
 G  C0000001
 E  C0000002
COLUMNS
    X0000000  C0000001   1.00000e+00
    X0000000  C0000000   1.00000e+00
    X0000000  OBJ        1.00000e+00
    X0000001  C0000000   1.00000e+00
    X0000001  C0000002  -1.00000e+00
    X0000001  OBJ        4.00000e+00
    X0000002  C0000001   1.00000e+00
    X0000002  C0000002   1.00000e+00
    X0000002  OBJ        9.00000e+00
RHS
    RHS       C0000000   5.00000e+00
    RHS       C0000001   1.00000e+01
    RHS       C0000002   7.00000e+00
BOUNDS
 UP BND       X0000000   4.00000e+00
 LO BND       X0000001  -1.00000e+00
 UP BND       X0000001   1.00000e+00
ENDATA
